(declare-const |i':63| Int)
(declare-const |j':54:61| Int)
(declare-const |K:69| Int)
(declare-const |k':53| Int)
(declare-const |K:59:60| Int)
(declare-const |k':53:62| Int)
(declare-const |havoc:0| Int)
(assert (and (or (not (and (<= (- |K:69|) 0) (<= |K:69| 0)))
                   (= (+ |i':63| (- |K:69|)) 0))
               (or (not (<= (+ (- |K:69|) 1) 0)) (= (+ |i':63| (- |K:69|)) 0))
               (or (not (and (<= (- |K:69|) 0) (<= |K:69| 0)))
                     (= (+ |k':53| (- |K:69|)) 0))
               (or (not (<= (+ (- |K:69|) 1) 0)) (= (+ |k':53| (- |K:69|)) 0))
               (or (and (= |K:69| 0) (= (- |i':63|) 0) (= (- |k':53|) 0))
                     (and (<= (+ (- |K:69|) 1) 0) (<= (+ (- |havoc:0|) 1) 0)
                            (= (+ (- |k':53|) |i':63|) 0)
                            (<= (+ (- |havoc:0|) |k':53|) 0)
                            (<= (+ (- |k':53|) 1) 0))) (<= (- |K:69|) 0)
               (<= (- |k':53|) 0) (<= (- |i':63|) 0)
               (= (+ |k':53| (- |i':63|)) 0) (<= (+ |havoc:0| (- |i':63|)) 0)
               (or (not (<= (- |K:59:60|) 0))
                     (= (+ |j':54:61| |K:59:60| (- |havoc:0|)) 0))
               (or (not (<= (- |K:59:60|) 0))
                     (= (+ |k':53:62| |K:59:60| (- |k':53|)) 0))
               (or (and (= |K:59:60| 0) (= (+ (- |j':54:61|) |havoc:0|) 0)
                          (= (+ (- |k':53:62|) |k':53|) 0))
                     (and (<= (+ (- |K:59:60|) 1) 0)
                            (<= (+ (- |havoc:0|) 1) 0)
                            (<= (+ (- |k':53|) 1) 0) (<= (- |j':54:61|) 0)
                            (<= (- |k':53:62|) 0))) (<= (- |K:59:60|) 0)
               (<= (- |k':53:62|) 0) (< (- |j':54:61|) 0)
               (not (< (- |k':53:62|) 0))))
(check-sat)
